Maximize
  6 Y_1_2_1 + 6 Y_1_2_2 + 6 Y_1_2_3 + 6 Y_1_2_4 + 6 Y_1_2_5 + 6 Y_1_2_6 + 6 Y_1_3_1 + 6 Y_1_3_2 + 6 Y_1_3_3 + 6 C15
   + 6 Y_1_3_5 + 6 Y_1_3_6 + 7 Y_1_4_1 + 7 Y_1_4_2 + 7 Y_1_4_3 + 7 Y_1_4_4 + 7 Y_1_4_5 + 7 Y_1_4_6 + 7 C24
   + 7 Y_1_5_2 + 7 Y_1_5_3 + 7 Y_1_5_4 + 7 Y_1_5_5 + 7 Y_1_5_6 + 6 Y_2_2_1 + 6 Y_2_2_2 + 6 Y_2_2_3 + 6 C45
   + 6 Y_2_2_5 + 6 Y_2_2_6 + 6 Y_2_3_1 + 6 Y_2_3_2 + 6 Y_2_3_3 + 6 Y_2_3_4 + 6 Y_2_3_5 + 6 Y_2_3_6 + 7 C54
   + 7 Y_2_4_2 + 7 Y_2_4_3 + 7 Y_2_4_4 + 7 Y_2_4_5 + 7 Y_2_4_6 + 7 Y_2_5_1 + 7 Y_2_5_2 + 7 Y_2_5_3 + 7 C63
   + 7 Y_2_5_5 + 7 Y_2_5_6 + 6 Y_3_2_1 + 6 Y_3_2_2 + 6 Y_3_2_3 + 6 Y_3_2_4 + 6 Y_3_2_5 + 6 Y_3_2_6 + 6 C84
   + 6 Y_3_3_2 + 6 Y_3_3_3 + 6 Y_3_3_4 + 6 Y_3_3_5 + 6 Y_3_3_6 + 7 Y_3_4_1 + 7 Y_3_4_2 + 7 Y_3_4_3 + 7 C93
   + 7 Y_3_4_5 + 7 Y_3_4_6 + 7 Y_3_5_1 + 7 Y_3_5_2 + 7 Y_3_5_3 + 7 Y_3_5_4 + 7 Y_3_5_5 + 7 C101
Subject To
 R0: Y_1_1_1 + Y_1_1_2 + Y_1_1_3 + Y_1_1_4 + Y_1_1_5 + Y_1_1_6 >= 1
 R1: Y_1_1_6 + Y_1_2_6 + Y_1_3_6 + Y_1_4_6 + Y_1_5_6 + Y_1_6_6 >= 1
 R2: - Y_1_1_1 - Y_1_1_2 - Y_1_1_3 - Y_1_1_4 - Y_1_1_5 - Y_1_1_6 >= 1
 R3: - Y_1_1_6 - Y_1_2_6 - Y_1_3_6 - Y_1_4_6 - Y_1_5_6 - Y_1_6_6 >= 1
 R4: Y_2_1_1 + Y_2_1_2 + Y_2_1_3 + Y_2_1_4 + Y_2_1_5 + Y_2_1_6 >= 1
 R5: Y_2_1_6 + Y_2_2_6 + Y_2_3_6 + Y_2_4_6 + Y_2_5_6 + Y_2_6_6 >= 1
 R6: - Y_2_1_1 - Y_2_1_2 - Y_2_1_3 - Y_2_1_4 - Y_2_1_5 - Y_2_1_6 >= 1
 R7: - Y_2_1_6 - Y_2_2_6 - Y_2_3_6 - Y_2_4_6 - Y_2_5_6 - Y_2_6_6 >= 1
 R8: Y_3_1_1 + Y_3_1_2 + Y_3_1_3 + Y_3_1_4 + Y_3_1_5 + Y_3_1_6 >= 1
 R9: Y_3_1_6 + Y_3_2_6 + Y_3_3_6 + Y_3_4_6 + Y_3_5_6 + Y_3_6_6 >= 1
 R10: - Y_3_1_1 - Y_3_1_2 - Y_3_1_3 - Y_3_1_4 - Y_3_1_5 - Y_3_1_6 >= 1
 R11: - Y_3_1_6 - Y_3_2_6 - Y_3_3_6 - Y_3_4_6 - Y_3_5_6 - Y_3_6_6 >= 1
 R12: - 1e+06 Y_1_1_1 + S_1_1 - E_1_1 >= -1e+06
 R13: - 1e+06 Y_1_1_2 + S_1_2 - E_1_1 >= -1e+06
 R14: - 1e+06 Y_1_1_3 + S_1_3 - E_1_1 >= -1e+06
 R15: - 1e+06 Y_1_1_4 + S_1_4 - E_1_1 >= -1e+06
 R16: - 1e+06 Y_1_1_5 + S_1_5 - E_1_1 >= -1e+06
 R17: - 1e+06 Y_1_1_6 + S_1_6 - E_1_1 >= -1e+06
 R18: - 1e+06 Y_1_2_1 + S_1_1 - E_1_2 >= -1e+06
 R19: - 1e+06 Y_1_2_2 + S_1_2 - E_1_2 >= -1e+06
 R20: - 1e+06 Y_1_2_3 + S_1_3 - E_1_2 >= -1e+06
 R21: - 1e+06 Y_1_2_4 + S_1_4 - E_1_2 >= -1e+06
 R22: - 1e+06 Y_1_2_5 + S_1_5 - E_1_2 >= -1e+06
 R23: - 1e+06 Y_1_2_6 + S_1_6 - E_1_2 >= -1e+06
 R24: - 1e+06 Y_1_3_1 + S_1_1 - E_1_3 >= -1e+06
 R25: - 1e+06 Y_1_3_2 + S_1_2 - E_1_3 >= -1e+06
 R26: - 1e+06 Y_1_3_3 + S_1_3 - E_1_3 >= -1e+06
 R27: - 1e+06 Y_1_3_4 + S_1_4 - E_1_3 >= -1e+06
 R28: - 1e+06 Y_1_3_5 + S_1_5 - E_1_3 >= -1e+06
 R29: - 1e+06 Y_1_3_6 + S_1_6 - E_1_3 >= -1e+06
 R30: - 1e+06 Y_1_4_1 + S_1_1 - E_1_4 >= -1e+06
 R31: - 1e+06 Y_1_4_2 + S_1_2 - E_1_4 >= -1e+06
 R32: - 1e+06 Y_1_4_3 + S_1_3 - E_1_4 >= -1e+06
 R33: - 1e+06 Y_1_4_4 + S_1_4 - E_1_4 >= -1e+06
 R34: - 1e+06 Y_1_4_5 + S_1_5 - E_1_4 >= -1e+06
 R35: - 1e+06 Y_1_4_6 + S_1_6 - E_1_4 >= -1e+06
 R36: - 1e+06 Y_1_5_1 + S_1_1 - E_1_5 >= -1e+06
 R37: - 1e+06 Y_1_5_2 + S_1_2 - E_1_5 >= -1e+06
 R38: - 1e+06 Y_1_5_3 + S_1_3 - E_1_5 >= -1e+06
 R39: - 1e+06 Y_1_5_4 + S_1_4 - E_1_5 >= -1e+06
 R40: - 1e+06 Y_1_5_5 + S_1_5 - E_1_5 >= -1e+06
 R41: - 1e+06 Y_1_5_6 + S_1_6 - E_1_5 >= -1e+06
 R42: - 1e+06 Y_1_6_1 + S_1_1 - E_1_6 >= -1e+06
 R43: - 1e+06 Y_1_6_2 + S_1_2 - E_1_6 >= -1e+06
 R44: - 1e+06 Y_1_6_3 + S_1_3 - E_1_6 >= -1e+06
 R45: - 1e+06 Y_1_6_4 + S_1_4 - E_1_6 >= -1e+06
 R46: - 1e+06 Y_1_6_5 + S_1_5 - E_1_6 >= -1e+06
 R47: - 1e+06 Y_1_6_6 + S_1_6 - E_1_6 >= -1e+06
 R48: - 1e+06 Y_2_1_1 + S_2_1 - E_2_1 >= -1e+06
 R49: - 1e+06 Y_2_1_2 + S_2_2 - E_2_1 >= -1e+06
 R50: - 1e+06 Y_2_1_3 + S_2_3 - E_2_1 >= -1e+06
 R51: - 1e+06 Y_2_1_4 + S_2_4 - E_2_1 >= -1e+06
 R52: - 1e+06 Y_2_1_5 + S_2_5 - E_2_1 >= -1e+06
 R53: - 1e+06 Y_2_1_6 + S_2_6 - E_2_1 >= -1e+06
 R54: - 1e+06 Y_2_2_1 + S_2_1 - E_2_2 >= -1e+06
 R55: - 1e+06 Y_2_2_2 + S_2_2 - E_2_2 >= -1e+06
 R56: - 1e+06 Y_2_2_3 + S_2_3 - E_2_2 >= -1e+06
 R57: - 1e+06 Y_2_2_4 + S_2_4 - E_2_2 >= -1e+06
 R58: - 1e+06 Y_2_2_5 + S_2_5 - E_2_2 >= -1e+06
 R59: - 1e+06 Y_2_2_6 + S_2_6 - E_2_2 >= -1e+06
 R60: - 1e+06 Y_2_3_1 + S_2_1 - E_2_3 >= -1e+06
 R61: - 1e+06 Y_2_3_2 + S_2_2 - E_2_3 >= -1e+06
 R62: - 1e+06 Y_2_3_3 + S_2_3 - E_2_3 >= -1e+06
 R63: - 1e+06 Y_2_3_4 + S_2_4 - E_2_3 >= -1e+06
 R64: - 1e+06 Y_2_3_5 + S_2_5 - E_2_3 >= -1e+06
 R65: - 1e+06 Y_2_3_6 + S_2_6 - E_2_3 >= -1e+06
 R66: - 1e+06 Y_2_4_1 + S_2_1 - E_2_4 >= -1e+06
 R67: - 1e+06 Y_2_4_2 + S_2_2 - E_2_4 >= -1e+06
 R68: - 1e+06 Y_2_4_3 + S_2_3 - E_2_4 >= -1e+06
 R69: - 1e+06 Y_2_4_4 + S_2_4 - E_2_4 >= -1e+06
 R70: - 1e+06 Y_2_4_5 + S_2_5 - E_2_4 >= -1e+06
 R71: - 1e+06 Y_2_4_6 + S_2_6 - E_2_4 >= -1e+06
 R72: - 1e+06 Y_2_5_1 + S_2_1 - E_2_5 >= -1e+06
 R73: - 1e+06 Y_2_5_2 + S_2_2 - E_2_5 >= -1e+06
 R74: - 1e+06 Y_2_5_3 + S_2_3 - E_2_5 >= -1e+06
 R75: - 1e+06 Y_2_5_4 + S_2_4 - E_2_5 >= -1e+06
 R76: - 1e+06 Y_2_5_5 + S_2_5 - E_2_5 >= -1e+06
 R77: - 1e+06 Y_2_5_6 + S_2_6 - E_2_5 >= -1e+06
 R78: - 1e+06 Y_2_6_1 + S_2_1 - E_2_6 >= -1e+06
 R79: - 1e+06 Y_2_6_2 + S_2_2 - E_2_6 >= -1e+06
 R80: - 1e+06 Y_2_6_3 + S_2_3 - E_2_6 >= -1e+06
 R81: - 1e+06 Y_2_6_4 + S_2_4 - E_2_6 >= -1e+06
 R82: - 1e+06 Y_2_6_5 + S_2_5 - E_2_6 >= -1e+06
 R83: - 1e+06 Y_2_6_6 + S_2_6 - E_2_6 >= -1e+06
 R84: - 1e+06 Y_3_1_1 + S_3_1 - E_3_1 >= -1e+06
 R85: - 1e+06 Y_3_1_2 + S_3_2 - E_3_1 >= -1e+06
 R86: - 1e+06 Y_3_1_3 + S_3_3 - E_3_1 >= -1e+06
 R87: - 1e+06 Y_3_1_4 + S_3_4 - E_3_1 >= -1e+06
 R88: - 1e+06 Y_3_1_5 + S_3_5 - E_3_1 >= -1e+06
 R89: - 1e+06 Y_3_1_6 + S_3_6 - E_3_1 >= -1e+06
 R90: - 1e+06 Y_3_2_1 + S_3_1 - E_3_2 >= -1e+06
 R91: - 1e+06 Y_3_2_2 + S_3_2 - E_3_2 >= -1e+06
 R92: - 1e+06 Y_3_2_3 + S_3_3 - E_3_2 >= -1e+06
 R93: - 1e+06 Y_3_2_4 + S_3_4 - E_3_2 >= -1e+06
 R94: - 1e+06 Y_3_2_5 + S_3_5 - E_3_2 >= -1e+06
 R95: - 1e+06 Y_3_2_6 + S_3_6 - E_3_2 >= -1e+06
 R96: - 1e+06 Y_3_3_1 + S_3_1 - E_3_3 >= -1e+06
 R97: - 1e+06 Y_3_3_2 + S_3_2 - E_3_3 >= -1e+06
 R98: - 1e+06 Y_3_3_3 + S_3_3 - E_3_3 >= -1e+06
 R99: - 1e+06 Y_3_3_4 + S_3_4 - E_3_3 >= -1e+06
 R100: - 1e+06 Y_3_3_5 + S_3_5 - E_3_3 >= -1e+06
 R101: - 1e+06 Y_3_3_6 + S_3_6 - E_3_3 >= -1e+06
 R102: - 1e+06 Y_3_4_1 + S_3_1 - E_3_4 >= -1e+06
 R103: - 1e+06 Y_3_4_2 + S_3_2 - E_3_4 >= -1e+06
 R104: - 1e+06 Y_3_4_3 + S_3_3 - E_3_4 >= -1e+06
 R105: - 1e+06 Y_3_4_4 + S_3_4 - E_3_4 >= -1e+06
 R106: - 1e+06 Y_3_4_5 + S_3_5 - E_3_4 >= -1e+06
 R107: - 1e+06 Y_3_4_6 + S_3_6 - E_3_4 >= -1e+06
 R108: - 1e+06 Y_3_5_1 + S_3_1 - E_3_5 >= -1e+06
 R109: - 1e+06 Y_3_5_2 + S_3_2 - E_3_5 >= -1e+06
 R110: - 1e+06 Y_3_5_3 + S_3_3 - E_3_5 >= -1e+06
 R111: - 1e+06 Y_3_5_4 + S_3_4 - E_3_5 >= -1e+06
 R112: - 1e+06 Y_3_5_5 + S_3_5 - E_3_5 >= -1e+06
 R113: - 1e+06 Y_3_5_6 + S_3_6 - E_3_5 >= -1e+06
 R114: - 1e+06 Y_3_6_1 + S_3_1 - E_3_6 >= -1e+06
 R115: - 1e+06 Y_3_6_2 + S_3_2 - E_3_6 >= -1e+06
 R116: - 1e+06 Y_3_6_3 + S_3_3 - E_3_6 >= -1e+06
 R117: - 1e+06 Y_3_6_4 + S_3_4 - E_3_6 >= -1e+06
 R118: - 1e+06 Y_3_6_5 + S_3_5 - E_3_6 >= -1e+06
 R119: - 1e+06 Y_3_6_6 + S_3_6 - E_3_6 >= -1e+06
 R120: S_1_1 >= -0
 R121: - E_1_1 >= -1e+06
 R122: S_1_2 >= -0
 R123: - E_1_2 >= -12
 R124: S_1_3 >= 4
 R125: - E_1_3 >= -16
 R126: S_1_4 >= 2
 R127: - E_1_4 >= -6
 R128: S_1_5 >= 6
 R129: - E_1_5 >= -10
 R130: S_1_6 >= -0
 R131: - E_1_6 >= -1e+06
 R132: S_2_1 >= -0
 R133: - E_2_1 >= -1e+06
 R134: S_2_2 >= -0
 R135: - E_2_2 >= -12
 R136: S_2_3 >= 4
 R137: - E_2_3 >= -16
 R138: S_2_4 >= 2
 R139: - E_2_4 >= -6
 R140: S_2_5 >= 6
 R141: - E_2_5 >= -10
 R142: S_2_6 >= -0
 R143: - E_2_6 >= -1e+06
 R144: S_3_1 >= -0
 R145: - E_3_1 >= -1e+06
 R146: S_3_2 >= -0
 R147: - E_3_2 >= -12
 R148: S_3_3 >= 4
 R149: - E_3_3 >= -16
 R150: S_3_4 >= 2
 R151: - E_3_4 >= -6
 R152: S_3_5 >= 6
 R153: - E_3_5 >= -10
 R154: S_3_6 >= -0
 R155: - E_3_6 >= -1e+06
 R156: E_1_1 >= -0
 R157: - S_1_6 >= -18
 R158: E_2_1 >= 1
 R159: - S_2_6 >= -13
 R160: E_3_1 >= 3
 R161: - S_3_6 >= -15
 R162: S_1_1 - E_1_1 >= -0
 R163: - S_1_1 + E_1_1 >= -0
 R164: 4 Y_1_2_1 + 4 Y_1_2_2 + 4 Y_1_2_3 + 4 Y_1_2_4 + 4 Y_1_2_5 + 4 Y_1_2_6 + S_1_2 - E_1_2 >= -0
 R165: - 4 Y_1_2_1 - 4 Y_1_2_2 - 4 Y_1_2_3 - 4 Y_1_2_4 - 4 Y_1_2_5 - 4 Y_1_2_6 - S_1_2 + E_1_2 >= -0
 R166: 4 Y_1_3_1 + 4 Y_1_3_2 + 4 Y_1_3_3 + 4 Y_1_3_4 + 4 Y_1_3_5 + 4 Y_1_3_6 + S_1_3 - E_1_3 >= -0
 R167: - 4 Y_1_3_1 - 4 Y_1_3_2 - 4 Y_1_3_3 - 4 Y_1_3_4 - 4 Y_1_3_5 - 4 Y_1_3_6 - S_1_3 + E_1_3 >= -0
 R168: Y_1_4_1 + Y_1_4_2 + Y_1_4_3 + Y_1_4_4 + Y_1_4_5 + Y_1_4_6 + S_1_4 - E_1_4 >= -0
 R169: - Y_1_4_1 - Y_1_4_2 - Y_1_4_3 - Y_1_4_4 - Y_1_4_5 - Y_1_4_6 - S_1_4 + E_1_4 >= -0
 R170: Y_1_5_1 + Y_1_5_2 + Y_1_5_3 + Y_1_5_4 + Y_1_5_5 + Y_1_5_6 + S_1_5 - E_1_5 >= -0
 R171: - Y_1_5_1 - Y_1_5_2 - Y_1_5_3 - Y_1_5_4 - Y_1_5_5 - Y_1_5_6 - S_1_5 + E_1_5 >= -0
 R172: S_1_6 - E_1_6 >= -0
 R173: - S_1_6 + E_1_6 >= -0
 R174: S_2_1 - E_2_1 >= -0
 R175: - S_2_1 + E_2_1 >= -0
 R176: 4 Y_2_2_1 + 4 Y_2_2_2 + 4 Y_2_2_3 + 4 Y_2_2_4 + 4 Y_2_2_5 + 4 Y_2_2_6 + S_2_2 - E_2_2 >= -0
 R177: - 4 Y_2_2_1 - 4 Y_2_2_2 - 4 Y_2_2_3 - 4 Y_2_2_4 - 4 Y_2_2_5 - 4 Y_2_2_6 - S_2_2 + E_2_2 >= -0
 R178: 4 Y_2_3_1 + 4 Y_2_3_2 + 4 Y_2_3_3 + 4 Y_2_3_4 + 4 Y_2_3_5 + 4 Y_2_3_6 + S_2_3 - E_2_3 >= -0
 R179: - 4 Y_2_3_1 - 4 Y_2_3_2 - 4 Y_2_3_3 - 4 Y_2_3_4 - 4 Y_2_3_5 - 4 Y_2_3_6 - S_2_3 + E_2_3 >= -0
 R180: Y_2_4_1 + Y_2_4_2 + Y_2_4_3 + Y_2_4_4 + Y_2_4_5 + Y_2_4_6 + S_2_4 - E_2_4 >= -0
 R181: - Y_2_4_1 - Y_2_4_2 - Y_2_4_3 - Y_2_4_4 - Y_2_4_5 - Y_2_4_6 - S_2_4 + E_2_4 >= -0
 R182: Y_2_5_1 + Y_2_5_2 + Y_2_5_3 + Y_2_5_4 + Y_2_5_5 + Y_2_5_6 + S_2_5 - E_2_5 >= -0
 R183: - Y_2_5_1 - Y_2_5_2 - Y_2_5_3 - Y_2_5_4 - Y_2_5_5 - Y_2_5_6 - S_2_5 + E_2_5 >= -0
 R184: S_2_6 - E_2_6 >= -0
 R185: - S_2_6 + E_2_6 >= -0
 R186: S_3_1 - E_3_1 >= -0
 R187: - S_3_1 + E_3_1 >= -0
 R188: 4 Y_3_2_1 + 4 Y_3_2_2 + 4 Y_3_2_3 + 4 Y_3_2_4 + 4 Y_3_2_5 + 4 Y_3_2_6 + S_3_2 - E_3_2 >= -0
 R189: - 4 Y_3_2_1 - 4 Y_3_2_2 - 4 Y_3_2_3 - 4 Y_3_2_4 - 4 Y_3_2_5 - 4 Y_3_2_6 - S_3_2 + E_3_2 >= -0
 R190: 4 Y_3_3_1 + 4 Y_3_3_2 + 4 Y_3_3_3 + 4 Y_3_3_4 + 4 Y_3_3_5 + 4 Y_3_3_6 + S_3_3 - E_3_3 >= -0
 R191: - 4 Y_3_3_1 - 4 Y_3_3_2 - 4 Y_3_3_3 - 4 Y_3_3_4 - 4 Y_3_3_5 - 4 Y_3_3_6 - S_3_3 + E_3_3 >= -0
 R192: Y_3_4_1 + Y_3_4_2 + Y_3_4_3 + Y_3_4_4 + Y_3_4_5 + Y_3_4_6 + S_3_4 - E_3_4 >= -0
 R193: - Y_3_4_1 - Y_3_4_2 - Y_3_4_3 - Y_3_4_4 - Y_3_4_5 - Y_3_4_6 - S_3_4 + E_3_4 >= -0
 R194: Y_3_5_1 + Y_3_5_2 + Y_3_5_3 + Y_3_5_4 + Y_3_5_5 + Y_3_5_6 + S_3_5 - E_3_5 >= -0
 R195: - Y_3_5_1 - Y_3_5_2 - Y_3_5_3 - Y_3_5_4 - Y_3_5_5 - Y_3_5_6 - S_3_5 + E_3_5 >= -0
 R196: S_3_6 - E_3_6 >= -0
 R197: - S_3_6 + E_3_6 >= -0
 R198: Y_1_1_1 + Y_1_2_1 + Y_1_3_1 + Y_1_4_1 + Y_1_5_1 + Y_1_6_1 + Y_2_1_1 + Y_2_2_1 + Y_2_3_1 + Y_2_4_1 + Y_2_5_1 + C66
   + Y_3_1_1 + Y_3_2_1 + Y_3_3_1 + Y_3_4_1 + Y_3_5_1 + Y_3_6_1 >= -0
 R199: - Y_1_1_1 - Y_1_2_1 - Y_1_3_1 - Y_1_4_1 - Y_1_5_1 - Y_1_6_1 - Y_2_1_1 - Y_2_2_1 - Y_2_3_1 - Y_2_4_1 - C60
   - Y_2_6_1 - Y_3_1_1 - Y_3_2_1 - Y_3_3_1 - Y_3_4_1 - Y_3_5_1 - Y_3_6_1 >= -0
 R200: Y_1_6_1 + Y_1_6_2 + Y_1_6_3 + Y_1_6_4 + Y_1_6_5 + Y_1_6_6 + Y_2_6_1 + Y_2_6_2 + Y_2_6_3 + Y_2_6_4 + C70
   + Y_2_6_6 + Y_3_6_1 + Y_3_6_2 + Y_3_6_3 + Y_3_6_4 + Y_3_6_5 + Y_3_6_6 >= -0
 R201: - Y_1_6_1 - Y_1_6_2 - Y_1_6_3 - Y_1_6_4 - Y_1_6_5 - Y_1_6_6 - Y_2_6_1 - Y_2_6_2 - Y_2_6_3 - Y_2_6_4 - C70
   - Y_2_6_6 - Y_3_6_1 - Y_3_6_2 - Y_3_6_3 - Y_3_6_4 - Y_3_6_5 - Y_3_6_6 >= -0
 R202: Y_1_1_1 - Y_1_1_2 - Y_1_1_3 - Y_1_1_4 - Y_1_1_5 - Y_1_1_6 + Y_1_2_1 + Y_1_3_1 + Y_1_4_1 + Y_1_5_1 + Y_1_6_1 >= -0
 R203: - Y_1_1_1 + Y_1_1_2 + Y_1_1_3 + Y_1_1_4 + Y_1_1_5 + Y_1_1_6 - Y_1_2_1 - Y_1_3_1 - Y_1_4_1 - Y_1_5_1 - Y_1_6_1 >= -0
 R204: Y_1_1_2 - Y_1_2_1 + Y_1_2_2 - Y_1_2_3 - Y_1_2_4 - Y_1_2_5 - Y_1_2_6 + Y_1_3_2 + Y_1_4_2 + Y_1_5_2 + Y_1_6_2 >= -0
 R205: - Y_1_1_2 + Y_1_2_1 - Y_1_2_2 + Y_1_2_3 + Y_1_2_4 + Y_1_2_5 + Y_1_2_6 - Y_1_3_2 - Y_1_4_2 - Y_1_5_2 - Y_1_6_2 >= -0
 R206: Y_1_1_3 + Y_1_2_3 - Y_1_3_1 - Y_1_3_2 + Y_1_3_3 - Y_1_3_4 - Y_1_3_5 - Y_1_3_6 + Y_1_4_3 + Y_1_5_3 + Y_1_6_3 >= -0
 R207: - Y_1_1_3 - Y_1_2_3 + Y_1_3_1 + Y_1_3_2 - Y_1_3_3 + Y_1_3_4 + Y_1_3_5 + Y_1_3_6 - Y_1_4_3 - Y_1_5_3 - C32
   >= -0
 R208: Y_1_1_4 + Y_1_2_4 + Y_1_3_4 - Y_1_4_1 - Y_1_4_2 - Y_1_4_3 + Y_1_4_4 - Y_1_4_5 - Y_1_4_6 + Y_1_5_4 + Y_1_6_4 >= -0
 R209: - Y_1_1_4 - Y_1_2_4 - Y_1_3_4 + Y_1_4_1 + Y_1_4_2 + Y_1_4_3 - Y_1_4_4 + Y_1_4_5 + Y_1_4_6 - Y_1_5_4 - C33
   >= -0
 R210: Y_1_1_5 + Y_1_2_5 + Y_1_3_5 + Y_1_4_5 - Y_1_5_1 - Y_1_5_2 - Y_1_5_3 - Y_1_5_4 + Y_1_5_5 - Y_1_5_6 + C34
   >= -0
 R211: - Y_1_1_5 - Y_1_2_5 - Y_1_3_5 - Y_1_4_5 + Y_1_5_1 + Y_1_5_2 + Y_1_5_3 + Y_1_5_4 - Y_1_5_5 + Y_1_5_6 - C34
   >= -0
 R212: Y_1_1_6 + Y_1_2_6 + Y_1_3_6 + Y_1_4_6 + Y_1_5_6 - Y_1_6_1 - Y_1_6_2 - Y_1_6_3 - Y_1_6_4 - Y_1_6_5 + C35
   >= -0
 R213: - Y_1_1_6 - Y_1_2_6 - Y_1_3_6 - Y_1_4_6 - Y_1_5_6 + Y_1_6_1 + Y_1_6_2 + Y_1_6_3 + Y_1_6_4 + Y_1_6_5 - C35
   >= -0
 R214: Y_2_1_1 - Y_2_1_2 - Y_2_1_3 - Y_2_1_4 - Y_2_1_5 - Y_2_1_6 + Y_2_2_1 + Y_2_3_1 + Y_2_4_1 + Y_2_5_1 + C66
   >= -0
 R215: - Y_2_1_1 + Y_2_1_2 + Y_2_1_3 + Y_2_1_4 + Y_2_1_5 + Y_2_1_6 - Y_2_2_1 - Y_2_3_1 - Y_2_4_1 - Y_2_5_1 - C66
   >= -0
 R216: Y_2_1_2 - Y_2_2_1 + Y_2_2_2 - Y_2_2_3 - Y_2_2_4 - Y_2_2_5 - Y_2_2_6 + Y_2_3_2 + Y_2_4_2 + Y_2_5_2 + C67
   >= -0
 R217: - Y_2_1_2 + Y_2_2_1 - Y_2_2_2 + Y_2_2_3 + Y_2_2_4 + Y_2_2_5 + Y_2_2_6 - Y_2_3_2 - Y_2_4_2 - Y_2_5_2 - C67
   >= -0
 R218: Y_2_1_3 + Y_2_2_3 - Y_2_3_1 - Y_2_3_2 + Y_2_3_3 - Y_2_3_4 - Y_2_3_5 - Y_2_3_6 + Y_2_4_3 + Y_2_5_3 + C68
   >= -0
 R219: - Y_2_1_3 - Y_2_2_3 + Y_2_3_1 + Y_2_3_2 - Y_2_3_3 + Y_2_3_4 + Y_2_3_5 + Y_2_3_6 - Y_2_4_3 - Y_2_5_3 - C68
   >= -0
 R220: Y_2_1_4 + Y_2_2_4 + Y_2_3_4 - Y_2_4_1 - Y_2_4_2 - Y_2_4_3 + Y_2_4_4 - Y_2_4_5 - Y_2_4_6 + Y_2_5_4 + C69
   >= -0
 R221: - Y_2_1_4 - Y_2_2_4 - Y_2_3_4 + Y_2_4_1 + Y_2_4_2 + Y_2_4_3 - Y_2_4_4 + Y_2_4_5 + Y_2_4_6 - Y_2_5_4 - C69
   >= -0
 R222: Y_2_1_5 + Y_2_2_5 + Y_2_3_5 + Y_2_4_5 - Y_2_5_1 - Y_2_5_2 - Y_2_5_3 - Y_2_5_4 + Y_2_5_5 - Y_2_5_6 + C70
   >= -0
 R223: - Y_2_1_5 - Y_2_2_5 - Y_2_3_5 - Y_2_4_5 + Y_2_5_1 + Y_2_5_2 + Y_2_5_3 + Y_2_5_4 - Y_2_5_5 + Y_2_5_6 - C70
   >= -0
 R224: Y_2_1_6 + Y_2_2_6 + Y_2_3_6 + Y_2_4_6 + Y_2_5_6 - Y_2_6_1 - Y_2_6_2 - Y_2_6_3 - Y_2_6_4 - Y_2_6_5 + C71
   >= -0
 R225: - Y_2_1_6 - Y_2_2_6 - Y_2_3_6 - Y_2_4_6 - Y_2_5_6 + Y_2_6_1 + Y_2_6_2 + Y_2_6_3 + Y_2_6_4 + Y_2_6_5 - C71
   >= -0
 R226: Y_3_1_1 - Y_3_1_2 - Y_3_1_3 - Y_3_1_4 - Y_3_1_5 - Y_3_1_6 + Y_3_2_1 + Y_3_3_1 + Y_3_4_1 + Y_3_5_1 + C102
   >= -0
 R227: - Y_3_1_1 + Y_3_1_2 + Y_3_1_3 + Y_3_1_4 + Y_3_1_5 + Y_3_1_6 - Y_3_2_1 - Y_3_3_1 - Y_3_4_1 - Y_3_5_1 - C102
   >= -0
 R228: Y_3_1_2 - Y_3_2_1 + Y_3_2_2 - Y_3_2_3 - Y_3_2_4 - Y_3_2_5 - Y_3_2_6 + Y_3_3_2 + Y_3_4_2 + Y_3_5_2 + C103
   >= -0
 R229: - Y_3_1_2 + Y_3_2_1 - Y_3_2_2 + Y_3_2_3 + Y_3_2_4 + Y_3_2_5 + Y_3_2_6 - Y_3_3_2 - Y_3_4_2 - Y_3_5_2 - C103
   >= -0
 R230: Y_3_1_3 + Y_3_2_3 - Y_3_3_1 - Y_3_3_2 + Y_3_3_3 - Y_3_3_4 - Y_3_3_5 - Y_3_3_6 + Y_3_4_3 + Y_3_5_3 + C104
   >= -0
 R231: - Y_3_1_3 - Y_3_2_3 + Y_3_3_1 + Y_3_3_2 - Y_3_3_3 + Y_3_3_4 + Y_3_3_5 + Y_3_3_6 - Y_3_4_3 - Y_3_5_3 - C104
   >= -0
 R232: Y_3_1_4 + Y_3_2_4 + Y_3_3_4 - Y_3_4_1 - Y_3_4_2 - Y_3_4_3 + Y_3_4_4 - Y_3_4_5 - Y_3_4_6 + Y_3_5_4 + C105
   >= -0
 R233: - Y_3_1_4 - Y_3_2_4 - Y_3_3_4 + Y_3_4_1 + Y_3_4_2 + Y_3_4_3 - Y_3_4_4 + Y_3_4_5 + Y_3_4_6 - Y_3_5_4 - C105
   >= -0
 R234: Y_3_1_5 + Y_3_2_5 + Y_3_3_5 + Y_3_4_5 - Y_3_5_1 - Y_3_5_2 - Y_3_5_3 - Y_3_5_4 + Y_3_5_5 - Y_3_5_6 + C106
   >= -0
 R235: - Y_3_1_5 - Y_3_2_5 - Y_3_3_5 - Y_3_4_5 + Y_3_5_1 + Y_3_5_2 + Y_3_5_3 + Y_3_5_4 - Y_3_5_5 + Y_3_5_6 - C106
   >= -0
 R236: Y_3_1_6 + Y_3_2_6 + Y_3_3_6 + Y_3_4_6 + Y_3_5_6 - Y_3_6_1 - Y_3_6_2 - Y_3_6_3 - Y_3_6_4 - C106
   + Y_3_6_6 >= -0
 R237: - Y_3_1_6 - Y_3_2_6 - Y_3_3_6 - Y_3_4_6 - Y_3_5_6 + Y_3_6_1 + Y_3_6_2 + Y_3_6_3 + Y_3_6_4 + C106
   - Y_3_6_6 >= -0
 R238: - Y_1_1_1 - Y_1_1_2 - Y_1_1_3 - Y_1_1_4 - Y_1_1_5 - Y_1_1_6 - Y_2_1_1 - Y_2_1_2 - Y_2_1_3 - Y_2_1_4 - Y_2_1_5 - C41
   - Y_3_1_1 - Y_3_1_2 - Y_3_1_3 - Y_3_1_4 - Y_3_1_5 - Y_3_1_6 >= -1
 R239: - Y_1_2_1 - Y_1_2_2 - Y_1_2_3 - Y_1_2_4 - Y_1_2_5 - Y_1_2_6 - Y_2_2_1 - Y_2_2_2 - Y_2_2_3 - Y_2_2_4 - Y_2_2_5 - C47
   - Y_3_2_1 - Y_3_2_2 - Y_3_2_3 - Y_3_2_4 - Y_3_2_5 - Y_3_2_6 >= -1
 R240: - Y_1_3_1 - Y_1_3_2 - Y_1_3_3 - Y_1_3_4 - Y_1_3_5 - Y_1_3_6 - Y_2_3_1 - Y_2_3_2 - Y_2_3_3 - Y_2_3_4 - C52
   - Y_2_3_6 - Y_3_3_1 - Y_3_3_2 - Y_3_3_3 - Y_3_3_4 - Y_3_3_5 - Y_3_3_6 >= -1
 R241: - Y_1_4_1 - Y_1_4_2 - Y_1_4_3 - Y_1_4_4 - Y_1_4_5 - Y_1_4_6 - Y_2_4_1 - Y_2_4_2 - Y_2_4_3 - Y_2_4_4 - C58
   - Y_2_4_6 - Y_3_4_1 - Y_3_4_2 - Y_3_4_3 - Y_3_4_4 - Y_3_4_5 - Y_3_4_6 >= -1
 R242: - Y_1_5_1 - Y_1_5_2 - Y_1_5_3 - Y_1_5_4 - Y_1_5_5 - Y_1_5_6 - Y_2_5_1 - Y_2_5_2 - Y_2_5_3 - Y_2_5_4 - C64
   - Y_2_5_6 - Y_3_5_1 - Y_3_5_2 - Y_3_5_3 - Y_3_5_4 - Y_3_5_5 - Y_3_5_6 >= -1
 R243: - Y_1_6_1 - Y_1_6_2 - Y_1_6_3 - Y_1_6_4 - Y_1_6_5 - Y_1_6_6 - Y_2_6_1 - Y_2_6_2 - Y_2_6_3 - Y_2_6_4 - C70
   - Y_2_6_6 - Y_3_6_1 - Y_3_6_2 - Y_3_6_3 - Y_3_6_4 - Y_3_6_5 - Y_3_6_6 >= -1
 R244: - Y_1_1_1 - Y_1_1_2 - Y_1_1_3 - Y_1_1_4 - Y_1_1_5 - Y_1_1_6 >= -1
 R245: - Y_1_2_1 - Y_1_2_2 - Y_1_2_3 - Y_1_2_4 - Y_1_2_5 - Y_1_2_6 >= -1
 R246: - Y_1_3_1 - Y_1_3_2 - Y_1_3_3 - Y_1_3_4 - Y_1_3_5 - Y_1_3_6 >= -1
 R247: - Y_1_4_1 - Y_1_4_2 - Y_1_4_3 - Y_1_4_4 - Y_1_4_5 - Y_1_4_6 >= -0
 R248: - Y_1_5_1 - Y_1_5_2 - Y_1_5_3 - Y_1_5_4 - Y_1_5_5 - Y_1_5_6 >= -0
 R249: - Y_1_6_1 - Y_1_6_2 - Y_1_6_3 - Y_1_6_4 - Y_1_6_5 - Y_1_6_6 >= -1
 R250: - Y_2_1_1 - Y_2_1_2 - Y_2_1_3 - Y_2_1_4 - Y_2_1_5 - Y_2_1_6 >= -1
 R251: - Y_2_2_1 - Y_2_2_2 - Y_2_2_3 - Y_2_2_4 - Y_2_2_5 - Y_2_2_6 >= -1
 R252: - Y_2_3_1 - Y_2_3_2 - Y_2_3_3 - Y_2_3_4 - Y_2_3_5 - Y_2_3_6 >= -1
 R253: - Y_2_4_1 - Y_2_4_2 - Y_2_4_3 - Y_2_4_4 - Y_2_4_5 - Y_2_4_6 >= -0
 R254: - Y_2_5_1 - Y_2_5_2 - Y_2_5_3 - Y_2_5_4 - Y_2_5_5 - Y_2_5_6 >= -0
 R255: - Y_2_6_1 - Y_2_6_2 - Y_2_6_3 - Y_2_6_4 - Y_2_6_5 - Y_2_6_6 >= -1
 R256: - Y_3_1_1 - Y_3_1_2 - Y_3_1_3 - Y_3_1_4 - Y_3_1_5 - Y_3_1_6 >= -1
 R257: - Y_3_2_1 - Y_3_2_2 - Y_3_2_3 - Y_3_2_4 - Y_3_2_5 - Y_3_2_6 >= -0
 R258: - Y_3_3_1 - Y_3_3_2 - Y_3_3_3 - Y_3_3_4 - Y_3_3_5 - Y_3_3_6 >= -1
 R259: - Y_3_4_1 - Y_3_4_2 - Y_3_4_3 - Y_3_4_4 - Y_3_4_5 - Y_3_4_6 >= -0
 R260: - Y_3_5_1 - Y_3_5_2 - Y_3_5_3 - Y_3_5_4 - Y_3_5_5 - Y_3_5_6 >= -0
 R261: - Y_3_6_1 - Y_3_6_2 - Y_3_6_3 - Y_3_6_4 - Y_3_6_5 - Y_3_6_6 >= -1
Bounds
Binaries
 Y_1_1_1 Y_1_1_2 Y_1_1_3 Y_1_1_4 Y_1_1_5 Y_1_1_6 Y_1_2_1 Y_1_2_2 Y_1_2_3 Y_1_2_4 Y_1_2_5 Y_1_2_6 Y_1_3_1 Y_1_3_2 Y_1_3_3 Y_1_3_4 Y_1_3_5 Y_1_3_6 Y_1_4_1 Y_1_4_2 C20
 Y_1_4_4 Y_1_4_5 Y_1_4_6 Y_1_5_1 Y_1_5_2 Y_1_5_3 Y_1_5_4 Y_1_5_5 Y_1_5_6 Y_1_6_1 Y_1_6_2 Y_1_6_3 Y_1_6_4 Y_1_6_5 Y_1_6_6 Y_2_1_1 Y_2_1_2 C38
 Y_2_1_4 Y_2_1_5 Y_2_1_6 Y_2_2_1 Y_2_2_2 Y_2_2_3 Y_2_2_4 Y_2_2_5 Y_2_2_6 Y_2_3_1 Y_2_3_2 Y_2_3_3 Y_2_3_4 Y_2_3_5 Y_2_3_6 Y_2_4_1 Y_2_4_2 C56
 Y_2_4_4 Y_2_4_5 Y_2_4_6 Y_2_5_1 Y_2_5_2 Y_2_5_3 Y_2_5_4 Y_2_5_5 Y_2_5_6 Y_2_6_1 Y_2_6_2 Y_2_6_3 Y_2_6_4 Y_2_6_5 Y_2_6_6 Y_3_1_1 Y_3_1_2 C74
 Y_3_1_4 Y_3_1_5 Y_3_1_6 Y_3_2_1 Y_3_2_2 Y_3_2_3 Y_3_2_4 Y_3_2_5 Y_3_2_6 Y_3_3_1 Y_3_3_2 Y_3_3_3 Y_3_3_4 Y_3_3_5 Y_3_3_6 Y_3_4_1 Y_3_4_2 C92
 Y_3_4_4 Y_3_4_5 Y_3_4_6 Y_3_5_1 Y_3_5_2 Y_3_5_3 Y_3_5_4 Y_3_5_5 Y_3_5_6 Y_3_6_1 Y_3_6_2 Y_3_6_3 Y_3_6_4 Y_3_6_5 C107
End
